% demand
num_movements = 40;
loading_factor = [1650, 1850, 1000, 1850, 800, 1200, 950, 1100, 1150, 1700, 900, 1600, 1500, 1700, 1150, 1300, 1500, 1550, 1400, 950, 1100, 2000, 1050, 1450, 1500, 1400, 1700, 1150, 850, 1300, 1650, 900, 1000, 1050, 1100, 1500, 1100, 1400, 950, 1050];
pickup_time = [0, 0, 0, 0, 0, 0, 0, 0, 1, 1, 1, 1, 1, 1, 1, 1, 2, 2, 2, 2, 2, 2, 2, 2, 3, 5, 5, 5, 5, 5, 5, 5, 5, 5, 6, 6, 6, 6, 6, 7];
delivery_time = [1, 1, 1, 1, 1, 1, 1, 1, 2, 2, 2, 2, 2, 2, 2, 2, 4, 5, 4, 4, 5, 3, 5, 5, 4, 6, 8, 8, 6, 6, 6, 6, 6, 8, 8, 8, 8, 8, 8, 8];

% transporter definition
total_capacity = 11000;
num_decks = 4;
capacity = [3000, 3000, 1000, 4000];

% ways out of decks
num_ways_out = 2;
paths_out = array3d(decks, ways_out, decks, [
% ways out of deck d1
2, 4, 0, 0, 3, 4, 0, 0, 

% ways out of deck d2
4, 0, 0, 0, 0, 0, 0, 0,	

% ways out of deck d3
4, 0, 0, 0, 0, 0, 0, 0,	

% ways out of deck d4
0, 0, 0, 0,	0, 0, 0, 0,	

]);

